p cnf 12 50 
-11 -12 -9 0
-12 11 5 0
3 -2 -12 0
7 3 -2 0
6 -1 4 0
-6 -4 7 0
-4 -5 -7 0
11 -12 6 0
-8 -4 -12 0
-8 -1 2 0
3 9 -11 0
-8 2 10 0
-11 -12 -7 0
-5 1 11 0
-11 -12 -5 0
-6 12 5 0
11 -7 -5 0
8 -6 1 0
-11 -1 9 0
12 9 -10 0
-8 -5 -9 0
-7 2 11 0
2 -10 9 0
-10 11 9 0
-6 8 -1 0
-2 -4 6 0
8 -9 2 0
-11 9 6 0
12 -2 9 0
11 4 -10 0
7 6 -9 0
12 1 11 0
8 -2 9 0
-1 -7 10 0
-1 3 9 0
-12 -1 -11 0
-1 -10 -12 0
-7 12 4 0
-6 -8 -2 0
-4 -6 -11 0
-11 -7 -6 0
12 -11 10 0
-11 7 -4 0
7 -9 -1 0
-3 -12 5 0
2 -9 10 0
-6 -12 -10 0
9 3 11 0
-6 -10 -4 0
-10 -12 -3 0
